409143
992873
772357
306514
214194
64698
176763
744186
119474
857963
216985
421459
528207
51515
348732
476494
955184
383668
71528
215358
534307
668841
65952
374008
120457
109606
413598
900978
146517
698037
507156
541419
469235
214543
329666
574759
435944
971553
45164
962067
796593
481809
552044
64312
22602
971653
33958
98376
25664
638837
712937
915064
579122
382293
876053
483676
592940
373623
406917
534028
673564
707454
664936
93605
162101
893853
77452
71343
889141
308479
448280
425711
94351
793593
733492
120587
417979
541207
373539
167277
919217
583189
149428
229214
428872
821461
932126
618605
168913
265330
245788
229445
523233
450631
856743
381310
155834
683965
842983
50115
